NAME: tsp50_16
COMMENT: 50-tsp problem (Padberg/Rinaldi)
TYPE: TSP
DIMENSION: 50
EDGE_WEIGHT_TYPE : EUC_2D
NODE_COORD_SECTION
1 26 22
2 5 7
3 0 29
4 27 10
5 9 25
6 13 31
7 6 25
8 26 23
9 39 22
10 22 39
11 16 11
12 25 3
13 7 30
14 20 3
15 22 8
16 23 12
17 21 35
18 13 33
19 2 25
20 7 3
21 24 12
22 18 37
23 27 2
24 1 14
25 26 13
26 21 25
27 10 9
28 1 34
29 21 26
30 19 8
31 22 24
32 1 16
33 18 37
34 12 16
35 25 10
36 3 31
37 3 27
38 38 5
39 30 4
40 30 38
41 21 39
42 30 2
43 21 14
44 6 22
45 0 26
46 7 15
47 27 6
48 17 18
49 30 34
50 31 7
